% seed = 7734502

mint = 56;
% maxt = 110;

nActs = 22;
dur = [0,7,10,6,1,5,7,5,5,1,9,8,7,2,3,4,10,4,3,10,3,0];

nSkills = 4;
sreq = [| 0,0,0,0,
	| 0,2,3,2,
	| 2,1,0,1,
	| 2,1,0,2,
	| 1,0,3,2,
	| 1,0,3,3,
	| 0,2,4,4,
	| 0,1,1,2,
	| 1,0,1,2,
	| 1,0,2,4,
	| 3,1,1,0,
	| 1,4,0,2,
	| 0,2,1,3,
	| 0,2,1,2,
	| 0,4,1,4,
	| 2,0,2,3,
	| 0,1,2,2,
	| 0,1,3,3,
	| 0,2,1,1,
	| 1,1,0,2,
	| 2,0,1,4,
	| 0,0,0,0, |];

nResources = 25;
mastery = [| false,true,false,true,
	| false,false,false,true,
	| true,true,false,false,
	| false,true,true,false,
	| false,true,true,true,
	| true,true,false,true,
	| false,true,true,false,
	| false,true,true,true,
	| true,false,false,true,
	| false,true,false,false,
	| false,true,false,false,
	| true,true,true,false,
	| false,true,false,false,
	| true,true,false,false,
	| true,false,false,false,
	| false,false,true,true,
	| false,false,true,false,
	| true,false,true,false,
	| true,false,false,false,
	| true,false,false,false,
	| true,true,false,true,
	| true,true,true,false,
	| true,true,false,false,
	| true,false,true,true,
	| true,true,false,false, |];

nPrecs = 37;
pred = [1,1,1,2,2,3,3,3,4,4,4,5,5,5,6,6,6,7,7,8,8,8,9,9,10,11,12,13,13,14,15,16,17,18,19,20,21];
succ = [2,3,4,17,16,11,5,6,9,21,8,10,13,8,9,17,7,20,21,17,14,15,10,12,18,19,13,19,15,19,16,18,20,20,22,22,22];

nUnrels = 95;
unpred = [2,2,2,2,2,2,2,2,2,2,2,2,2,2,2,3,4,4,4,4,5,5,5,5,5,5,6,6,6,7,7,7,7,7,7,7,7,7,7,7,7,8,8,8,8,8,8,9,9,9,9,10,10,10,10,10,10,10,10,10,11,11,11,11,11,11,11,11,11,12,12,12,13,13,13,14,14,14,14,14,14,15,15,15,16,16,16,17,17,17,18,18,19,19,20];
unsucc = [3,4,5,6,7,8,9,10,11,12,13,14,15,19,21,4,5,6,7,11,6,7,9,11,12,21,8,11,14,8,9,10,11,12,13,14,15,16,17,18,19,9,10,11,12,13,21,11,14,17,21,11,12,13,14,15,16,17,19,21,12,13,14,15,16,17,18,20,21,14,17,21,14,17,21,15,16,17,18,20,21,17,19,21,17,19,21,18,19,21,19,21,20,21,21];

USEFUL_RES = [{},
	{1,2,3,4,5,6,7,8,9,10,11,12,13,14,16,17,18,21,22,23,24,25},
	{1,2,3,4,5,6,7,8,9,10,11,12,13,14,15,16,18,19,20,21,22,23,24,25},
	{1,2,3,4,5,6,7,8,9,10,11,12,13,14,15,16,18,19,20,21,22,23,24,25},
	{1,2,3,4,5,6,7,8,9,12,14,15,16,17,18,19,20,21,22,23,24,25},
	{1,2,3,4,5,6,7,8,9,12,14,15,16,17,18,19,20,21,22,23,24,25},
	{1,2,3,4,5,6,7,8,9,10,11,12,13,14,16,17,18,21,22,23,24,25},
	{1,2,3,4,5,6,7,8,9,10,11,12,13,14,16,17,18,21,22,23,24,25},
	{1,2,3,4,5,6,7,8,9,12,14,15,16,17,18,19,20,21,22,23,24,25},
	{1,2,3,4,5,6,7,8,9,12,14,15,16,17,18,19,20,21,22,23,24,25},
	{1,3,4,5,6,7,8,9,10,11,12,13,14,15,16,17,18,19,20,21,22,23,24,25},
	{1,2,3,4,5,6,7,8,9,10,11,12,13,14,15,16,18,19,20,21,22,23,24,25},
	{1,2,3,4,5,6,7,8,9,10,11,12,13,14,16,17,18,21,22,23,24,25},
	{1,2,3,4,5,6,7,8,9,10,11,12,13,14,16,17,18,21,22,23,24,25},
	{1,2,3,4,5,6,7,8,9,10,11,12,13,14,16,17,18,21,22,23,24,25},
	{1,2,3,4,5,6,7,8,9,12,14,15,16,17,18,19,20,21,22,23,24,25},
	{1,2,3,4,5,6,7,8,9,10,11,12,13,14,16,17,18,21,22,23,24,25},
	{1,2,3,4,5,6,7,8,9,10,11,12,13,14,16,17,18,21,22,23,24,25},
	{1,2,3,4,5,6,7,8,9,10,11,12,13,14,16,17,18,21,22,23,24,25},
	{1,2,3,4,5,6,7,8,9,10,11,12,13,14,15,16,18,19,20,21,22,23,24,25},
	{1,2,3,4,5,6,7,8,9,12,14,15,16,17,18,19,20,21,22,23,24,25},
	{}];

POTENTIAL_ACT = [{2,3,4,5,6,7,8,9,10,11,12,13,14,15,16,17,18,19,20,21},
	{2,3,4,5,6,7,8,9,10,12,13,14,15,16,17,18,19,20,21},
	{2,3,4,5,6,7,8,9,10,11,12,13,14,15,16,17,18,19,20,21},
	{2,3,4,5,6,7,8,9,10,11,12,13,14,15,16,17,18,19,20,21},
	{2,3,4,5,6,7,8,9,10,11,12,13,14,15,16,17,18,19,20,21},
	{2,3,4,5,6,7,8,9,10,11,12,13,14,15,16,17,18,19,20,21},
	{2,3,4,5,6,7,8,9,10,11,12,13,14,15,16,17,18,19,20,21},
	{2,3,4,5,6,7,8,9,10,11,12,13,14,15,16,17,18,19,20,21},
	{2,3,4,5,6,7,8,9,10,11,12,13,14,15,16,17,18,19,20,21},
	{2,3,4,7,8,11,12,13,14,15,17,18,19,20},
	{2,3,4,7,8,11,12,13,14,15,17,18,19,20},
	{2,3,4,5,6,7,8,9,10,11,12,13,14,15,16,17,18,19,20,21},
	{2,3,4,7,8,11,12,13,14,15,17,18,19,20},
	{2,3,4,5,6,7,8,9,10,11,12,13,14,15,16,17,18,19,20,21},
	{3,4,5,6,9,10,11,12,16,20,21},
	{2,3,4,5,6,7,8,9,10,11,12,13,14,15,16,17,18,19,20,21},
	{2,5,6,7,8,9,10,11,13,14,15,16,17,18,19,21},
	{2,3,4,5,6,7,8,9,10,11,12,13,14,15,16,17,18,19,20,21},
	{3,4,5,6,9,10,11,12,16,20,21},
	{3,4,5,6,9,10,11,12,16,20,21},
	{2,3,4,5,6,7,8,9,10,11,12,13,14,15,16,17,18,19,20,21},
	{2,3,4,5,6,7,8,9,10,11,12,13,14,15,16,17,18,19,20,21},
	{2,3,4,5,6,7,8,9,10,11,12,13,14,15,16,17,18,19,20,21},
	{2,3,4,5,6,7,8,9,10,11,12,13,14,15,16,17,18,19,20,21},
	{2,3,4,5,6,7,8,9,10,11,12,13,14,15,16,17,18,19,20,21}];
